c description: Random 3-CNF over 15 variables and 60 clauses
p cnf 15 60
-1 14 -15 0
-4 8 9 0
4 -14 -15 0
-1 8 -13 0
5 -9 15 0
-1 11 13 0
3 -7 -10 0
1 -6 8 0
-3 10 12 0
-1 -7 11 0
-1 4 14 0
1 -8 11 0
2 3 6 0
1 -2 -11 0
4 -12 15 0
6 -8 -9 0
-5 -14 -15 0
-3 -5 -13 0
5 -10 11 0
3 -4 -7 0
5 -8 9 0
1 5 13 0
-6 13 14 0
-1 -6 -9 0
-2 -9 -13 0
2 7 14 0
-2 -13 -15 0
-2 -5 -8 0
-8 13 -15 0
1 -3 7 0
-4 13 -15 0
-2 13 -15 0
-6 11 -15 0
3 -4 12 0
10 11 -13 0
-2 4 -11 0
2 6 -9 0
-9 -10 11 0
-2 7 14 0
5 6 8 0
-2 -7 -15 0
-1 -9 15 0
7 -8 -15 0
6 9 -11 0
-5 -7 10 0
-2 7 15 0
-1 10 15 0
3 4 5 0
-2 -3 13 0
8 9 13 0
1 -2 -6 0
-6 10 11 0
3 12 -13 0
-3 8 -14 0
4 -5 11 0
1 7 -14 0
-1 -10 11 0
2 -3 8 0
7 9 10 0
-3 -12 -13 0